2722068
148,139,167,174,164,65,30,122,10,145,64,172,132,57,75,102,27,38,17,16,60,46,79,208,134,191,136,221,200,23,126,51,88,129,217,228,186,150,171,170,4,153,33,111,195,137,193,213,147,19,115,209,70,59,58,52,124,11,204,95,103,146,120,178,43,74,189,83,163,71,123,86,5,15,118,112,155,78,165,143,173,154,25,206,8,151,87,44,84,82,224,90,109,68,201,157,127,162,135,49,32,36,26,210,108,107,196,7,20,31,226,77,121,99,180,158,62,225,14,48,211,6,69,160,131,223,117,3,207,114,61,214,144,72,205,133,229,130,42,219,128,105,106,41,141,100,56,18,92,54,216,175,202,53,24,66,190,222,113,159,1,35,169,81,9,63,192,176,85,45,227,185,125,22,184,96,39,140,47,91,67,29,218,119,152,138,181,203,142,21,12,187,2,212,101,215,166,40,28,156,110,93,104,76,149,89,116,94,50,161,34,37,179,55,183,220,97,73,188,182,199,177,98,230,197,168,13,194,80,198